rows = 5;
cols = 9;
max_steps = 12;
problem = array2d(1..rows, 1..cols, 
[
 %1 2 3 4 5 6 7,8,9,
  W,W,B,W,4,W,W,W,W, % 1
  W,W,1,W,W,W,1,W,W, % 2
  4,W,W,W,3,W,W,W,2, % 3
  W,W,2,W,W,W,1,W,W, % 4
  W,W,W,W,1,W,B,W,W, % 5
]);

%sum_points = 12;